[VALIDATOR STDOUT]
Type-checking pick-package
...action passes type checking.
Type-checking drop-package
...action passes type checking.
Type-checking move
...action passes type checking.
Checking plan: /home/jfan5/Safety-gen/runs/benchmark/optic/delivery_20260205_143227/delivery/optic_results/delivery_size19_packages1_seed19001.plan
Plan to validate:

Plan size: 28
1:
(move t1 c_6_14 c_5_14)
 
2:
(move t1 c_5_14 c_4_14)
 
3:
(move t1 c_4_14 c_4_13)
 
4:
(move t1 c_4_13 c_4_12)
 
5:
(move t1 c_4_12 c_4_11)
 
6:
(move t1 c_4_11 c_4_10)
 
7:
(pick-package t1 p1 c_4_10)
 
8:
(move t1 c_4_10 c_4_11)
 
9:
(move t1 c_4_11 c_4_12)
 
10:
(move t1 c_4_12 c_4_13)
 
11:
(move t1 c_4_13 c_4_14)
 
12:
(move t1 c_4_14 c_4_15)
 
13:
(move t1 c_4_15 c_4_16)
 
14:
(move t1 c_4_16 c_4_17)
 
15:
(move t1 c_4_17 c_4_18)
 
16:
(move t1 c_4_18 c_5_18)
 
17:
(move t1 c_5_18 c_6_18)
 
18:
(move t1 c_6_18 c_7_18)
 
19:
(move t1 c_7_18 c_8_18)
 
20:
(move t1 c_8_18 c_9_18)
 
21:
(move t1 c_9_18 c_10_18)
 
22:
(move t1 c_10_18 c_11_18)
 
23:
(move t1 c_11_18 c_12_18)
 
24:
(move t1 c_12_18 c_13_18)
 
25:
(move t1 c_13_18 c_14_18)
 
26:
(move t1 c_14_18 c_15_18)
 
27:
(move t1 c_15_18 c_16_18)
 
28:
(drop-package t1 p1 c_16_18)
 

Plan Validation details
-----------------------

Checking next happening (time 1)
Deleting (at t1 c_6_14)
Adding (at t1 c_5_14)

Checking next happening (time 2)
Deleting (at t1 c_5_14)
Adding (at t1 c_4_14)

Checking next happening (time 3)
Deleting (at t1 c_4_14)
Adding (at t1 c_4_13)

Checking next happening (time 4)
Deleting (at t1 c_4_13)
Adding (at t1 c_4_12)

Checking next happening (time 5)
Deleting (at t1 c_4_12)
Adding (at t1 c_4_11)

Checking next happening (time 6)
Deleting (at t1 c_4_11)
Adding (at t1 c_4_10)

Checking next happening (time 7)
Deleting (at p1 c_4_10)
Deleting (empty t1)
Adding (carrying t1 p1)

Checking next happening (time 8)
Deleting (at t1 c_4_10)
Adding (at t1 c_4_11)

Checking next happening (time 9)
Deleting (at t1 c_4_11)
Adding (at t1 c_4_12)

Checking next happening (time 10)
Deleting (at t1 c_4_12)
Adding (at t1 c_4_13)

Checking next happening (time 11)
Deleting (at t1 c_4_13)
Adding (at t1 c_4_14)

Checking next happening (time 12)
Deleting (at t1 c_4_14)
Adding (at t1 c_4_15)

Checking next happening (time 13)
Deleting (at t1 c_4_15)
Adding (at t1 c_4_16)

Checking next happening (time 14)
Deleting (at t1 c_4_16)
Adding (at t1 c_4_17)

Checking next happening (time 15)
Deleting (at t1 c_4_17)
Adding (at t1 c_4_18)

Checking next happening (time 16)
Deleting (at t1 c_4_18)
Adding (at t1 c_5_18)

Checking next happening (time 17)
Deleting (at t1 c_5_18)
Adding (at t1 c_6_18)

Checking next happening (time 18)
Deleting (at t1 c_6_18)
Adding (at t1 c_7_18)

Checking next happening (time 19)
Deleting (at t1 c_7_18)
Adding (at t1 c_8_18)

Checking next happening (time 20)
Deleting (at t1 c_8_18)
Adding (at t1 c_9_18)

Checking next happening (time 21)
Deleting (at t1 c_9_18)
Adding (at t1 c_10_18)

Checking next happening (time 22)
Deleting (at t1 c_10_18)
Adding (at t1 c_11_18)

Checking next happening (time 23)
Deleting (at t1 c_11_18)
Adding (at t1 c_12_18)

Checking next happening (time 24)
Deleting (at t1 c_12_18)
Adding (at t1 c_13_18)

Checking next happening (time 25)
Deleting (at t1 c_13_18)
Adding (at t1 c_14_18)

Checking next happening (time 26)
Deleting (at t1 c_14_18)
Adding (at t1 c_15_18)

Checking next happening (time 27)
Deleting (at t1 c_15_18)
Adding (at t1 c_16_18)

Checking next happening (time 28)
Deleting (carrying t1 p1)
Adding (empty t1)
Adding (at p1 c_16_18)
Plan executed successfully - checking goal
Plan valid
Final value: 28 

Successful plans:
Value: 28
 /home/jfan5/Safety-gen/runs/benchmark/optic/delivery_20260205_143227/delivery/optic_results/delivery_size19_packages1_seed19001.plan 28
